p cnf 10 25
2 3 5 6 -9 -8 -4 0
4 5 6 -10 -9 -7 -1 0
4 -2 0
9 10 0
-6 2 -5 0
-4 -1 0
2 -9 7 0
-8 -2 -9 0
8 -5 -2 0
-6 4 0
10 3 6 0
3 6 -10 8 9 -4 0
-3 5 7 0
10 5 6 0
8 9 -2 0
3 -1 0
8 -7 3 0
1 2 5 -10 -8 -6 0
9 -1 0
2 10 4 0
1 2 7 9 -5 -4 0
-6 -3 -2 0
1 2 9 -10 -3 0
8 1 -5 -10 0
-8 -3 -9 0
